clingo version 5.4.1
Reading from ASP_puzzle.lp
Solving...
Answer: 1
cell(1,1,"c") cell(1,2,"e") cell(1,3,"b") cell(1,4,"b") cell(1,5,"c") cell(2,1,"b") cell(2,2,"e") cell(2,3,"a") cell(2,4,"d") cell(2,5,"e") cell(3,1,"a") cell(3,2,"d") cell(3,3,"a") cell(3,4,"c") cell(3,5,"e") cell(4,1,"c") cell(4,2,"a") cell(4,3,"b") cell(4,4,"e") cell(4,5,"c") cell(5,1,"e") cell(5,2,"b") cell(5,3,"a") cell(5,4,"a") cell(5,5,"a") crossedout(1,3,"b") crossedout(1,5,"c") crossedout(2,2,"e") crossedout(3,3,"a") crossedout(3,5,"e") crossedout(4,1,"c") crossedout(5,3,"a") crossedout(5,5,"a")
SATISFIABLE

Models       : 1
Calls        : 1
Time         : 0.004s (Solving: 0.00s 1st Model: 0.00s Unsat: 0.00s)
CPU Time     : 0.004s
